
MOSEK Version 8.0.0.51 (Build date: 2016-12-14 12:53:47)
Copyright (c) MOSEK ApS, Denmark. WWW: mosek.com
Platform: Linux/64-X86

Problem
  Name                   :                 
  Objective sense        : min             
  Type                   : LO (linear optimization problem)
  Constraints            : 1442            
  Cones                  : 0               
  Scalar variables       : 309             
  Matrix variables       : 0               
  Integer variables      : 273             

Optimizer started.
Mixed integer optimizer started.
Threads used: 72
Presolve started.
Presolve terminated. Time = 0.03
Presolved problem: 308 variables, 749 constraints, 2666 non-zeros
Presolved problem: 0 general integer, 273 binary, 35 continuous
Clique table size: 34
BRANCHES RELAXS   ACT_NDS  DEPTH    BEST_INT_OBJ         BEST_RELAX_OBJ       REL_GAP(%)  TIME  
0        1        0        0        NA                   9.3140545653e+01     NA          0.1   
Cut generation started.
0        2        0        0        NA                   9.3140545653e+01     NA          0.2   
0        3        0        0        NA                   9.3360308153e+01     NA          0.2   
Cut generation terminated. Time = 0.02
15       19       16       3        NA                   9.3421683452e+01     NA          0.3   
31       35       30       4        NA                   9.3460237919e+01     NA          0.4   
60       64       59       5        NA                   9.3462741944e+01     NA          0.4   
118      122      97       6        NA                   9.3477121068e+01     NA          0.5   
179      183      156      7        NA                   9.3477121068e+01     NA          0.5   
305      309      280      7        NA                   9.3480229324e+01     NA          0.6   
521      525      486      10       NA                   9.3493645309e+01     NA          0.8   
953      954      854      14       NA                   9.3493682947e+01     NA          1.0   
1745     1733     1194     12       NA                   9.3493682947e+01     NA          1.1   
2897     2866     1932     16       NA                   9.3493768636e+01     NA          1.3   
4678     4619     2935     18       9.6647893362e+01     9.3493799578e+01     3.26        1.5   
An optimal solution satisfying the relative gap tolerance of 3.50e+00(%) has been located.
The relative gap is 3.26e+00(%).

Objective of best integer solution : 9.664789336245e+01      
Best objective bound               : 9.349379957781e+01      
Construct solution objective       : Not employed
Construct solution # roundings     : 0
User objective cut value           : 0
Number of cuts generated           : 39
  Number of Gomory cuts            : 23
  Number of CMIR cuts              : 16
Number of branches                 : 4678
Number of relaxations solved       : 4619
Number of interior point iterations: 26
Number of simplex iterations       : 95911
Time spend presolving the root     : 0.03
Time spend in the heuristic        : 0.00
Time spend in the sub optimizers   : 0.00
  Time spend optimizing the root   : 0.10
Mixed integer optimizer terminated. Time: 1.56

Optimizer terminated. Time: 1.59    

Integer solution solution summary
  Problem status  : PRIMAL_FEASIBLE
  Solution status : INTEGER_OPTIMAL
  Primal.  obj: 9.6647893362e+01    nrm: 1e+04    Viol.  con: 2e-12    var: 0e+00    itg: 0e+00  
Optimizer summary
  Optimizer                 -                        time: 1.59    
    Interior-point          - iterations : 0         time: 0.00    
      Basis identification  -                        time: 0.00    
        Primal              - iterations : 0         time: 0.00    
        Dual                - iterations : 0         time: 0.00    
        Clean primal        - iterations : 0         time: 0.00    
        Clean dual          - iterations : 0         time: 0.00    
    Simplex                 -                        time: 0.00    
      Primal simplex        - iterations : 0         time: 0.00    
      Dual simplex          - iterations : 0         time: 0.00    
    Mixed integer           - relaxations: 4619      time: 1.56    

